35
Properties=species:S:1:pos:R:3:energies:R:1:forces:R:3:charge:R:1 energy=-1696.2995226509515 free_energy=-1696.2995226509515 dipole="-1.0595741462656347 -0.5455547825187432 -0.2507919913162437" pbc="F F F"
C        2.33061242      -0.75176509       1.18264068     -59.58413180       0.00246903      -0.00085605       0.00277096      -0.04642894
N        1.51806877       0.27702075       0.60161400     -79.59697164       0.00790000      -0.00263437      -0.00278126      -0.03958682
C        1.83297374       1.59648973       0.40502597     -58.35233642       0.00133387      -0.00364811       0.00157189       0.08328883
N        0.88563609       2.28098389      -0.15222900     -80.64390051       0.00072699      -0.00596445       0.00070319      -0.25677930
C       -0.13503519       1.38590951      -0.34893580     -58.52620313       0.00013210      -0.00318573      -0.00213500      -0.00631479
C        0.25508417       0.12658650       0.12262609     -58.46215037       0.00659828       0.00212042       0.00079893       0.12052471
N       -0.46691736      -1.00653352       0.10374558     -81.32393508       0.00321457       0.00615312      -0.00338477      -0.34006934
C       -1.66161490      -0.85931403      -0.42549485     -58.87659323       0.00080352       0.00120253       0.00084235       0.23594241
N       -2.46900051      -1.92062073      -0.52130843     -80.92026355       0.00032024       0.00303771      -0.00024119      -0.27399547
N       -2.13272366       0.32922452      -0.90872015     -80.44983358       0.00016467      -0.00032846       0.00141983      -0.19994741
C       -1.43079901       1.52947431      -0.92216121     -59.26977064      -0.00117089      -0.00361871      -0.00606882       0.26707319
O       -1.95060519       2.53893155      -1.39633279    -112.74038427      -0.00479073      -0.00119772       0.00537502      -0.46519927
H        2.40822638      -1.59373389       0.49297247     -13.04063002      -0.00360040      -0.00088599       0.00726752       0.06825285
H        3.32252495      -0.35290877       1.38838114     -13.14954929       0.00119936      -0.00091056      -0.00107234       0.05963405
H        1.88106430      -1.10838435       2.11155485     -13.06789317      -0.00189312      -0.00126660      -0.00133332       0.06460663
H        2.78385986       2.00037298       0.69309603     -13.47842388      -0.00313163       0.00338720      -0.00020947       0.03746438
H       -2.14444169      -2.78497008      -0.12895802     -12.22778700      -0.00185420       0.00233739      -0.00191286       0.19389294
H       -3.42634905      -1.84372821      -0.86706333     -11.91405029      -0.00805291      -0.00238442       0.00122143       0.24183870
H       -3.09439951       0.34826069      -1.29755189     -11.90619702       0.00510630       0.00066886      -0.00139077       0.23047830
C       -7.64438854      -1.79062308      -2.39092754     -59.46299359       0.00165942       0.00166525       0.00308252      -0.05087917
N       -6.82403980      -0.60251303      -2.41214160     -79.51962072       0.00155827       0.00052762      -0.00240319      -0.06242265
C       -7.30748511       0.55327600      -2.91050976     -58.45572419       0.00009665       0.00191953       0.00042744       0.03910890
C       -6.55584947       1.67695846      -2.94874507     -58.62558135      -0.00110305       0.00334014       0.00051870      -0.09662062
C       -5.22102285       1.59295552      -2.43588814     -58.77156733       0.00234004      -0.00186987      -0.00837792       0.18691555
N       -4.41137627       2.63876516      -2.44041863     -80.74498497      -0.00443803       0.00184003       0.00097614      -0.25057393
N       -4.76409017       0.44609037      -1.94443505     -81.06609116      -0.00118269      -0.00175214      -0.00503155      -0.33715626
C       -5.50582855      -0.66426325      -1.90855946     -59.29984707      -0.00289056      -0.00194272       0.00094900       0.33039855
O       -5.09331320      -1.72678360      -1.45967555    -113.03703129       0.00019326      -0.00136233       0.00248714      -0.48870297
H       -7.89312619      -2.10253052      -3.40684728     -13.14924436       0.00419436       0.00177061      -0.00011952       0.05664503
H       -8.56407958      -1.60831536      -1.83346009     -13.15763278      -0.00046903      -0.00365624       0.00647140       0.05614761
H       -7.06928374      -2.57576131      -1.90209588     -12.82993985       0.00338284      -0.00169880       0.00141491       0.09665420
H       -8.32620972       0.52641533      -3.27361663     -13.24803496       0.00278315      -0.00125118      -0.00411601       0.05083059
H       -6.93829916       2.60157626      -3.34454623     -13.41115332       0.00015175       0.00181845      -0.00226259       0.04580716
H       -4.73578698       3.51876155      -2.80017077     -12.33490436      -0.00335614       0.00463280       0.00256676       0.18123234
H       -3.45004902       2.57918475      -2.04176054     -11.65416644      -0.00839525       0.00399281       0.00197545       0.26794002
