35
Properties=species:S:1:pos:R:3:energies:R:1:forces:R:3:charge:R:1 energy=-1695.863466743269 free_energy=-1695.863466743269 dipole="-1.169020242387384 -0.5940145932311057 -0.2581249000276532" pbc="F F F"
C        2.32552160      -0.73115719       1.18361335     -59.55532773       0.00133771      -0.00263206       0.00075733      -0.04347089
N        1.50706570       0.28593028       0.59123192     -79.67113021       0.00008894       0.00073051      -0.00015277      -0.04944289
C        1.80471828       1.61051830       0.39676829     -58.33624736      -0.00383770       0.00283691       0.00002285       0.08911667
N        0.85576100       2.29134224      -0.15875651     -80.70293375      -0.00592358       0.00082219      -0.00041202      -0.26298340
C       -0.15859126       1.38620487      -0.36003387     -58.49966265      -0.00592835      -0.00190816      -0.00050790       0.00145388
C        0.24486655       0.12343418       0.10886527     -58.43787353      -0.00066469      -0.00139420      -0.00091816       0.13083535
N       -0.48339563      -0.98639633       0.06764862     -81.38853963       0.00315796      -0.00609791       0.00165702      -0.35115771
C       -1.68418763      -0.81046489      -0.47960637     -58.84702515       0.00216570      -0.00308193       0.00032466       0.24186708
N       -2.44356171      -1.91227200      -0.59796072     -80.92247928      -0.00244551       0.00144158      -0.00411974      -0.27855528
N       -2.19038557       0.35328189      -0.95034551     -81.44534705      -0.00368586      -0.00506256      -0.00139983      -0.35883009
C       -1.45048707       1.46424686      -0.90833934     -58.92122952      -0.00803413      -0.00410856      -0.00218245       0.24599019
O       -1.91938093       2.59717549      -1.36540753    -112.40739652      -0.00117891       0.00106095       0.00172596      -0.37556975
H        2.39169337      -1.58795875       0.51149793     -13.05396040      -0.00053521      -0.00284504      -0.00201610       0.06741798
H        3.32083818      -0.32997096       1.36763713     -13.16666865       0.00303138      -0.00327830      -0.00075358       0.05799757
H        1.88794599      -1.06762715       2.12609106     -13.09192144       0.00217188       0.00163247       0.00456516       0.06217348
H        2.75204886       2.02298975       0.68634396     -13.48506744      -0.00185646      -0.00125379       0.00302707       0.03631271
H       -2.09365571      -2.74404904      -0.15859425     -12.32151954       0.00387691       0.00660778      -0.00359258       0.18638181
H       -3.41841594      -1.86585964      -0.86843564     -12.05766709      -0.00522347       0.00694332      -0.00435519       0.22647894
H       -3.78084907       0.35806595      -1.53558710     -11.63076975       0.00007781      -0.00529226       0.00154034       0.25320473
C       -7.67522403      -1.77970161      -2.39478533     -59.51647972       0.00287146       0.00213685       0.00224144      -0.05576257
N       -6.82201794      -0.61259731      -2.39732231     -79.45538876       0.00268438       0.00654738       0.00025899      -0.05472315
C       -7.28031593       0.56071303      -2.91605409     -58.48606574       0.00279524       0.00426197      -0.00171604       0.02839915
C       -6.52429027       1.66907184      -2.94973287     -58.57065066       0.00453316       0.00036702      -0.00131970      -0.09053356
C       -5.17564073       1.62340109      -2.42631961     -58.77875619      -0.00272113      -0.00043290      -0.00224019       0.17779664
N       -4.33278200       2.58303093      -2.39120379     -81.30864216      -0.00692125       0.00254353      -0.00407326      -0.38807548
N       -4.77779649       0.40745990      -1.91631662     -80.30546726       0.00221090       0.00102509      -0.00086175      -0.18188864
C       -5.53987120      -0.71151789      -1.87001649     -59.32659606       0.00269991       0.00144553       0.00173010       0.32430873
O       -5.14523770      -1.76241306      -1.39519726    -112.86519181      -0.00596674      -0.00096088       0.00019482      -0.46645246
H       -7.93665874      -2.06069670      -3.41607289     -13.09599524       0.00174767      -0.00296639      -0.00184706       0.06126964
H       -8.58703980      -1.58272004      -1.82955467     -13.09765117      -0.00066180      -0.00017837       0.00753047       0.06129841
H       -7.12649432      -2.59390226      -1.92526950     -12.81143161       0.00771896      -0.00059530       0.00476901       0.09757453
H       -8.29187429       0.53723529      -3.29609830     -13.18684792       0.00449964      -0.00507924       0.00295502       0.05736667
H       -6.89608298       2.59301347      -3.35907884     -13.32066653       0.00509382      -0.00594426       0.00142115       0.05478513
H       -4.66435160       3.45852599      -2.77473984     -12.69047698       0.00127768       0.00617118      -0.00262708       0.15053675
H       -2.85460489       2.52179717      -1.74844871     -11.10439227       0.00154367       0.00653783       0.00037403       0.34487981
