35
Properties=species:S:1:pos:R:3 pbc="F F F"
C        2.33061242      -0.75176509       1.18264068
N        1.51806877       0.27702075       0.60161400
C        1.83297374       1.59648973       0.40502597
N        0.88563609       2.28098389      -0.15222900
C       -0.13503519       1.38590951      -0.34893580
C        0.25508417       0.12658650       0.12262609
N       -0.46691736      -1.00653352       0.10374558
C       -1.66161490      -0.85931403      -0.42549485
N       -2.46900051      -1.92062073      -0.52130843
N       -2.13272366       0.32922452      -0.90872015
C       -1.43079901       1.52947431      -0.92216121
O       -1.95060519       2.53893155      -1.39633279
H        2.40822638      -1.59373389       0.49297247
H        3.32252495      -0.35290877       1.38838114
H        1.88106430      -1.10838435       2.11155485
H        2.78385986       2.00037298       0.69309603
H       -2.14444169      -2.78497008      -0.12895802
H       -3.42634905      -1.84372821      -0.86706333
H       -3.09439951       0.34826069      -1.29755189
C       -7.64438854      -1.79062308      -2.39092754
N       -6.82403980      -0.60251303      -2.41214160
C       -7.30748511       0.55327600      -2.91050976
C       -6.55584947       1.67695846      -2.94874507
C       -5.22102285       1.59295552      -2.43588814
N       -4.41137627       2.63876516      -2.44041863
N       -4.76409017       0.44609037      -1.94443505
C       -5.50582855      -0.66426325      -1.90855946
O       -5.09331320      -1.72678360      -1.45967555
H       -7.89312619      -2.10253052      -3.40684728
H       -8.56407958      -1.60831536      -1.83346009
H       -7.06928374      -2.57576131      -1.90209588
H       -8.32620972       0.52641533      -3.27361663
H       -6.93829916       2.60157626      -3.34454623
H       -4.73578698       3.51876155      -2.80017077
H       -3.45004902       2.57918475      -2.04176054
35
Properties=species:S:1:pos:R:3 pbc="F F F"
C        2.31893368      -0.74585881       1.17703049
N        1.50440809       0.27916178       0.59204541
C        1.81610011       1.59945637       0.39570120
N        0.86765042       2.28237725      -0.16122960
C       -0.15188789       1.38559582      -0.35777442
C        0.24135330       0.12707203       0.11386327
N       -0.48060598      -1.00467433       0.09516775
C       -1.67705856      -0.85729111      -0.43177372
N       -2.47969894      -1.92169076      -0.52308245
N       -2.15295278       0.32969867      -0.91425151
C       -1.44956833       1.52652417      -0.92658866
O       -1.96800865       2.54170583      -1.39609122
H        2.39774953      -1.59082112       0.49128043
H        3.30991249      -0.34312093       1.38018407
H        1.87024158      -1.09971930       2.10747940
H        2.76534715       2.00601974       0.68489166
H       -2.14681771      -2.78336242      -0.13206204
H       -3.43898431      -1.85103756      -0.86607318
H       -3.12490289       0.34905015      -1.30488429
C       -7.63313084      -1.78559023      -2.38728430
N       -6.80928182      -0.60017797      -2.40708687
C       -7.28884287       0.55700144      -2.90662227
C       -6.53341684       1.67744325      -2.94169679
C       -5.19921055       1.59041045      -2.42547029
N       -4.39060664       2.63453782      -2.42348601
N       -4.74513413       0.43962252      -1.93519409
C       -5.49325288      -0.66694368      -1.90210921
O       -5.08779106      -1.73265942      -1.45340636
H       -7.88264496      -2.09382170      -3.40391279
H       -8.55177153      -1.60125496      -1.82896507
H       -7.06148406      -2.57446530      -1.90044807
H       -8.30630712       0.53211846      -3.27289522
H       -6.91099476       2.60379996      -3.33814518
H       -4.71622661       3.51398655      -2.78408116
H       -3.41916113       2.57618883      -2.01755775
35
Properties=species:S:1:pos:R:3 pbc="F F F"
C        2.30743285      -0.73936902       1.17124442
N        1.49145837       0.28330142       0.58411566
C        1.79991415       1.60439500       0.38694499
N        0.84969671       2.28518914      -0.16935220
C       -0.16820905       1.38594664      -0.36466462
C        0.22842490       0.12842659       0.10697129
N       -0.49250999      -1.00282430       0.08832374
C       -1.69044282      -0.85664133      -0.43736541
N       -2.48831701      -1.92420791      -0.52543122
N       -2.17101156       0.32871320      -0.91962116
C       -1.46691780       1.52238979      -0.93031603
O       -1.98234924       2.54341001      -1.39710472
H        2.38613054      -1.58627682       0.48790430
H        3.29829354      -0.33535010       1.37241127
H        1.85976429      -1.09084373       2.10313079
H        2.74868871       2.01294589       0.67491771
H       -2.14966445      -2.78366109      -0.13443534
H       -3.44895993      -1.85808580      -0.86651742
H       -3.15485133       0.34800105      -1.31222391
C       -7.62407533      -1.78099100      -2.38490336
N       -6.79666640      -0.59795860      -2.40336551
C       -7.27181289       0.56110549      -2.90352734
C       -6.51255058       1.67833182      -2.93506077
C       -5.17922835       1.58877421      -2.41485340
N       -4.37015348       2.62975428      -2.40867093
N       -4.72916322       0.43400229      -1.92437176
C       -5.48278832      -0.66932113      -1.89570738
O       -5.08410753      -1.73838581      -1.44789013
H       -7.87508810      -2.08695082      -3.40182960
H       -8.54165347      -1.59467333      -1.82547223
H       -7.05442048      -2.57224342      -1.89951648
H       -8.28832623       0.53933205      -3.27256205
H       -6.88580932       2.60628303      -3.33194159
H       -4.69675211       3.50894194      -2.76952898
H       -3.38613549       2.57150299      -1.99524999
35
Properties=species:S:1:pos:R:3 pbc="F F F"
C        2.29735244      -0.73326828       1.16596876
N        1.47985137       0.28746732       0.57744452
C        1.78525030       1.60927584       0.37905860
N        0.83341030       2.28796760      -0.17677605
C       -0.18297782       1.38637235      -0.37060140
C        0.21679104       0.12989079       0.10143134
N       -0.50330361      -1.00071815       0.08281098
C       -1.70246315      -0.85566938      -0.44235343
N       -2.49519681      -1.92664471      -0.52842061
N       -2.18750102       0.32802420      -0.92446259
C       -1.48242229       1.51810380      -0.93349928
O       -1.99403244       2.54545540      -1.39814701
H        2.37546405      -1.58179432       0.48455732
H        3.28832427      -0.32842675       1.36498461
H        1.85096565      -1.08274546       2.09926750
H        2.73349011       2.01994732       0.66577526
H       -2.15119937      -2.78360765      -0.13649637
H       -3.45727077      -1.86483968      -0.86711027
H       -3.18492522       0.34724684      -1.32030346
C       -7.61683528      -1.77653645      -2.38317179
N       -6.78604312      -0.59579172      -2.39995477
C       -7.25724468       0.56497495      -2.90088032
C       -6.49467381       1.67924522      -2.92928619
C       -5.16181379       1.58773829      -2.40585564
N       -4.35219882       2.62525586      -2.39590960
N       -4.71547373       0.42893868      -1.91517010
C       -5.47417341      -0.67138051      -1.88989891
O       -5.08170829      -1.74329798      -1.44245424
H       -7.86905773      -2.07995293      -3.40055309
H       -8.53355826      -1.58849655      -1.82286249
H       -7.04914578      -2.57012037      -1.89928093
H       -8.27285138       0.54575995      -3.27256279
H       -6.86413426       2.60867442      -3.32637173
H       -4.67996565       3.50384725      -2.75773184
H       -3.35275623       2.56686049      -1.97424805
35
Properties=species:S:1:pos:R:3 pbc="F F F"
C        2.28868764      -0.72760978       1.16128471
N        1.46962307       0.29140601       0.57181805
C        1.77220315       1.61387104       0.37219679
N        0.81891822       2.29064269      -0.18322609
C       -0.19606843       1.38687199      -0.37561515
C        0.20656571       0.13128294       0.09685155
N       -0.51290301      -0.99852499       0.07802822
C       -1.71313677      -0.85428477      -0.44701755
N       -2.50097854      -1.92849321      -0.53176405
N       -2.20218508       0.32785126      -0.92897862
C       -1.49597718       1.51391440      -0.93606377
O       -2.00305930       2.54825833      -1.39878361
H        2.36598736      -1.57754935       0.48153366
H        3.27983516      -0.32206902       1.35797444
H        1.84384810      -1.07531777       2.09602205
H        2.71998421       2.02642887       0.65767354
H       -2.15215387      -2.78301788      -0.13862402
H       -3.46449016      -1.87066147      -0.86788076
H       -3.21483896       0.34694807      -1.32895380
C       -7.61123054      -1.77253473      -2.38199287
N       -6.77733194      -0.59391056      -2.39704861
C       -7.24518999       0.56840653      -2.89873845
C       -6.47999953       1.68014517      -2.92459726
C       -5.14720965       1.58752698      -2.39851295
N       -4.33681715       2.62116484      -2.38533667
N       -4.70442877       0.42470605      -1.90734424
C       -5.46740632      -0.67306025      -1.88471166
O       -5.08029582      -1.74729859      -1.43721309
H       -7.86454129      -2.07345447      -3.39984749
H       -8.52720802      -1.58296653      -1.82091850
H       -7.04537293      -2.56827622      -1.89955785
H       -8.26000198       0.55139781      -3.27267948
H       -6.84627009       2.61082089      -3.32192896
H       -4.66605457       3.49901505      -2.74838123
H       -3.31869186       2.56244421      -1.95427666
35
Properties=species:S:1:pos:R:3 pbc="F F F"
C        2.28143288      -0.72266751       1.15725542
N        1.46083705       0.29486005       0.56709431
C        1.76101739       1.61797487       0.36640586
N        0.80634523       2.29289236      -0.18861623
C       -0.20740729       1.38734633      -0.37974315
C        0.19782703       0.13246197       0.09309674
N       -0.52128853      -0.99621377       0.07376580
C       -1.72247244      -0.85221057      -0.45137528
N       -2.50601956      -1.92905666      -0.53528636
N       -2.21490470       0.32856905      -0.93307407
C       -1.50738806       1.51006510      -0.93794320
O       -2.00967382       2.55189222      -1.39903134
H        2.35796166      -1.57387042       0.47890512
H        3.27269345      -0.31611297       1.35149810
H        1.83824594      -1.06876163       2.09347744
H        2.70859190       2.03209556       0.65103878
H       -2.15289128      -2.78135892      -0.14105374
H       -3.47087863      -1.87502168      -0.86894119
H       -3.24421452       0.34727896      -1.33797254
C       -7.60703368      -1.76908137      -2.38121678
N       -6.77046468      -0.59232011      -2.39462896
C       -7.23594102       0.57127249      -2.89719138
C       -6.46907969       1.68118620      -2.92124363
C       -5.13594813       1.58836192      -2.39303817
N       -4.32435647       2.61746217      -2.37681688
N       -4.69634647       0.42155420      -1.90118858
C       -5.46232025      -0.67438324      -1.88024860
O       -5.07924866      -1.75035951      -1.43228120
H       -7.86138112      -2.06777211      -3.39945981
H       -8.52244380      -1.57834907      -1.81958397
H       -7.04287575      -2.56675889      -1.90013274
H       -8.25013044       0.55609717      -3.27300541
H       -6.83308293       2.61267149      -3.31898173
H       -4.65528085       3.49431779      -2.74143089
H       -3.28374775       2.55843378      -1.93502491
35
Properties=species:S:1:pos:R:3 pbc="F F F"
C        2.27520350      -0.71785555       1.15359769
N        1.45331947       0.29823008       0.56306126
C        1.75112088       1.62186327       0.36153457
N        0.79548848       2.29548780      -0.19303729
C       -0.21707695       1.38808812      -0.38312385
C        0.19039114       0.13353185       0.08994793
N       -0.52859954      -0.99407704       0.06998921
C       -1.73073877      -0.85014099      -0.45553553
N       -2.51074158      -1.92916734      -0.53901474
N       -2.22589988       0.32967610      -0.93702069
C       -1.51705016       1.50627506      -0.93929477
O       -2.01331009       2.55679232      -1.39847282
H        2.35042357      -1.57014548       0.47659129
H        3.26661672      -0.31080623       1.34530225
H        1.83358956      -1.06223703       2.09112137
H        2.69807476       2.03769724       0.64495143
H       -2.15440133      -2.77990752      -0.14406455
H       -3.47702798      -1.87786527      -0.87041415
H       -3.27207544       0.34884276      -1.34694179
C       -7.60450237      -1.76638674      -2.38079851
N       -6.76588053      -0.59104745      -2.39279020
C       -7.22912378       0.57382171      -2.89631611
C       -6.46104357       1.68191610      -2.91894258
C       -5.12716360       1.58974510      -2.38904740
N       -4.31419857       2.61412678      -2.37020203
N       -4.69083835       0.41894419      -1.89635540
C       -5.45954851      -0.67498931      -1.87672009
O       -5.07980470      -1.75224660      -1.42791034
H       -7.85968536      -2.06308067      -3.39947176
H       -8.51938419      -1.57489019      -1.81842056
H       -7.04142719      -2.56557792      -1.90100352
H       -8.24269326       0.55931098      -3.27364147
H       -6.82328847       2.61412024      -3.31713579
H       -4.64738270       3.48998245      -2.73642298
H       -3.24658744       2.55558497      -1.91548630
35
Properties=species:S:1:pos:R:3 pbc="F F F"
C        2.27024264      -0.71383521       1.15058530
N        1.44701011       0.30098806       0.55973543
C        1.74286054       1.62514980       0.35766259
N        0.78647620       2.29772728      -0.19645874
C       -0.22514046       1.38898453      -0.38586159
C        0.18421332       0.13441414       0.08733664
N       -0.53496952      -0.99175421       0.06640210
C       -1.73805378      -0.84757627      -0.45949190
N       -2.51529760      -1.92799342      -0.54273305
N       -2.23515740       0.33180046      -0.94062782
C       -1.52468448       1.50297838      -0.94009523
O       -2.01494896       2.56268607      -1.39767670
H        2.34409083      -1.56714743       0.47473841
H        3.26185338      -0.30609663       1.33965704
H        1.83018770      -1.05650383       2.08947775
H        2.68941112       2.04239099       0.64023548
H       -2.15637916      -2.77773506      -0.14761677
H       -3.48295132      -1.87888612      -0.87245667
H       -3.29769864       0.35146960      -1.35550347
C       -7.60346010      -1.76456282      -2.38066357
N       -6.76333808      -0.59029781      -2.39152596
C       -7.22543358       0.57554247      -2.89620935
C       -6.45701213       1.68252415      -2.91814841
C       -5.12191627       1.59234428      -2.38706485
N       -4.30741461       2.61162691      -2.36575423
N       -4.68848642       0.41753660      -1.89328855
C       -5.45861116      -0.67506514      -1.87414949
O       -5.08062632      -1.75314276      -1.42412142
H       -7.85952300      -2.05957392      -3.39966407
H       -8.51793884      -1.57262767      -1.81763555
H       -7.04117918      -2.56497592      -1.90205178
H       -8.23858450       0.56092270      -3.27462276
H       -6.81856443       2.61487826      -3.31698825
H       -4.64404226       3.48587857      -2.73414302
H       -3.20707705       2.55429715      -1.89589644
35
Properties=species:S:1:pos:R:3 pbc="F F F"
C        2.26556743      -0.70956845       1.14755771
N        1.44095341       0.30391289       0.55648888
C        1.73517662       1.62853512       0.35442620
N        0.77822498       2.30032533      -0.19915228
C       -0.23278309       1.39057500      -0.38845474
C        0.17832768       0.13563167       0.08451965
N       -0.54104744      -0.98908566       0.06258957
C       -1.74504315      -0.84473460      -0.46366805
N       -2.52121142      -1.92495183      -0.54703731
N       -2.24365654       0.33469309      -0.94426258
C       -1.53170289       1.50023657      -0.94076646
O       -2.01513792       2.57021311      -1.39645948
H        2.33805662      -1.56421342       0.47376942
H        3.25791483      -0.30306967       1.33399608
H        1.82848690      -1.05048955       2.08814701
H        2.68159291       2.04694293       0.63628544
H       -2.16140361      -2.77500795      -0.15341827
H       -3.49022578      -1.87715195      -0.87585610
H       -3.32038135       0.35368975      -1.36347636
C       -7.60407798      -1.76378694      -2.38067631
N       -6.76267359      -0.59020097      -2.39050762
C       -7.22365190       0.57657230      -2.89673100
C       -6.45529715       1.68240297      -2.91836561
C       -5.11903986       1.59490598      -2.38631431
N       -4.30322964       2.60910236      -2.36288149
N       -4.68822694       0.41624087      -1.89106733
C       -5.45938195      -0.67474784      -1.87223844
O       -5.08241462      -1.75347261      -1.42061348
H       -7.86123037      -2.05734564      -3.40012282
H       -8.51827575      -1.57192571      -1.81659159
H       -7.04233932      -2.56555868      -1.90340213
H       -8.23628474       0.56112487      -3.27593273
H       -6.81637401       2.61470738      -3.31788645
H       -4.64321061       3.48176182      -2.73376310
H       -3.16456257       2.55398353      -1.87558380
35
Properties=species:S:1:pos:R:3 pbc="F F F"
C        2.26145045      -0.70632400       1.14487034
N        1.43527494       0.30591403       0.55354806
C        1.72843103       1.63118272       0.35197834
N        0.77121057       2.30281545      -0.20095807
C       -0.23931419       1.39252462      -0.39053189
C        0.17276642       0.13639175       0.08193354
N       -0.54730206      -0.98633533       0.05836736
C       -1.75237120      -0.84115329      -0.46800772
N       -2.52865797      -1.91993649      -0.55139843
N       -2.25103639       0.33930931      -0.94786953
C       -1.53696715       1.49866946      -0.94092975
O       -2.01439645       2.57899741      -1.39524744
H        2.33207055      -1.56249583       0.47296627
H        3.25458737      -0.30020485       1.32787690
H        1.82734706      -1.04498997       2.08760728
H        2.67474114       2.05026005       0.63358393
H       -2.16834170      -2.77125108      -0.16079323
H       -3.49918010      -1.87243570      -0.88076659
H       -3.33827025       0.35743239      -1.37011484
C       -7.60563305      -1.76406092      -2.38059303
N       -6.76369647      -0.59112965      -2.38982089
C       -7.22515042       0.57605673      -2.89794778
C       -6.45807309       1.68160657      -2.92027926
C       -5.12003077       1.59883734      -2.38772858
N       -4.30261302       2.60767156      -2.36224537
N       -4.69123618       0.41627277      -1.89070837
C       -5.46162692      -0.67398588      -1.87125013
O       -5.08368482      -1.75304492      -1.41786251
H       -7.86421438      -2.05646274      -3.40001884
H       -8.51941476      -1.57275512      -1.81559594
H       -7.04452877      -2.56694557      -1.90486007
H       -8.23763412       0.55880151      -3.27760969
H       -6.82005484       2.61314795      -3.32099393
H       -4.64869893       3.47731729      -2.73673337
H       -3.11745476       2.55634925      -1.85413499
35
Properties=species:S:1:pos:R:3 pbc="F F F"
C        2.25770934      -0.70519755       1.14255355
N        1.43029981       0.30668869       0.55109923
C        1.72217063       1.63279643       0.35046711
N        0.76536054       2.30524611      -0.20148621
C       -0.24494192       1.39484968      -0.39177030
C        0.16783247       0.13716056       0.07962014
N       -0.55455590      -0.98257464       0.05285733
C       -1.76084771      -0.83509776      -0.47327040
N       -2.53859023      -1.91132503      -0.55733846
N       -2.25877010       0.34671553      -0.95216078
C       -1.54107157       1.49906231      -0.94064424
O       -2.01267447       2.58985550      -1.39353791
H        2.32445924      -1.56329530       0.47225421
H        3.25169086      -0.29813867       1.31978640
H        1.82649604      -1.03978332       2.08843797
H        2.66809843       2.05165389       0.63248855
H       -2.17856330      -2.76486368      -0.17104321
H       -3.51090748      -1.86235363      -0.88769954
H       -3.35693397       0.36381051      -1.37757523
C       -7.60763466      -1.76648225      -2.37964776
N       -6.76573615      -0.59350569      -2.38905547
C       -7.22943212       0.57351114      -2.89966759
C       -6.46449618       1.67925094      -2.92363723
C       -5.12466448       1.60187816      -2.39093309
N       -4.30674017       2.60656905      -2.36456765
N       -4.69552544       0.41661251      -1.89150038
C       -5.46437406      -0.67339472      -1.87076444
O       -5.08445670      -1.75250782      -1.41576886
H       -7.86846296      -2.05717252      -3.39908841
H       -8.52093363      -1.57540040      -1.81356395
H       -7.04690554      -2.57068166      -1.90579662
H       -8.24187450       0.55449612      -3.27983228
H       -6.82631992       2.61058221      -3.32588856
H       -4.65986169       3.47268885      -2.74307108
H       -3.07221141       2.56075837      -1.83377452
35
Properties=species:S:1:pos:R:3 pbc="F F F"
C        2.25233927      -0.70235771       1.13934994
N        1.42387645       0.30845978       0.54828725
C        1.71552665       1.63472938       0.34844224
N        0.75857718       2.30723522      -0.20286573
C       -0.25174103       1.39684486      -0.39360547
C        0.16140746       0.13870519       0.07701794
N       -0.56141092      -0.97925263       0.04891359
C       -1.76817694      -0.83059191      -0.47832901
N       -2.54123216      -1.91015751      -0.56265134
N       -2.26789219       0.35061560      -0.95601017
C       -1.54705323       1.49750592      -0.94105689
O       -2.01273694       2.59733079      -1.39275110
H        2.31701038      -1.56193537       0.47133998
H        3.24748053      -0.29716976       1.31351808
H        1.82470068      -1.03539909       2.08705255
H        2.66177681       2.05404849       0.63031719
H       -2.17647434      -2.76027519      -0.17291479
H       -3.51462162      -1.86542300      -0.88917252
H       -3.39017729       0.36881409      -1.39003961
C       -7.61104481      -1.76703876      -2.38014687
N       -6.76979457      -0.59382653      -2.39019169
C       -7.23498416       0.57270644      -2.90234364
C       -6.47189885       1.67881962      -2.92748904
C       -5.13039947       1.60696610      -2.39523274
N       -4.31304085       2.60910162      -2.36899980
N       -4.70180530       0.41897743      -1.89351451
C       -5.46984380      -0.67249484      -1.87122241
O       -5.08973102      -1.75055049      -1.41413395
H       -7.87253758      -2.05789722      -3.39926118
H       -8.52344829      -1.57683688      -1.81249629
H       -7.04935901      -2.57076846      -1.90719372
H       -8.24741685       0.55052872      -3.28195903
H       -6.83600972       2.60878393      -3.33084946
H       -4.67222191       3.47241093      -2.75016167
H       -3.04129184       2.56695359      -1.82101342
35
Properties=species:S:1:pos:R:3 pbc="F F F"
C        2.24813981      -0.70006795       1.13684113
N        1.41942545       0.31093618       0.54642553
C        1.70969433       1.63752284       0.34682642
N        0.75222297       2.30978322      -0.20397651
C       -0.25770321       1.39862911      -0.39484361
C        0.15666041       0.14088873       0.07519431
N       -0.56673632      -0.97562367       0.04521443
C       -1.77363775      -0.82435607      -0.48367342
N       -2.54132303      -1.90892004      -0.56979589
N       -2.27714932       0.35375986      -0.96052292
C       -1.55320848       1.49549615      -0.94149181
O       -2.01487996       2.60234411      -1.39181647
H        2.30945790      -1.56090074       0.46997331
H        3.24439761      -0.29589592       1.30722347
H        1.82292038      -1.03088407       2.08655991
H        2.65585391       2.05707597       0.62860250
H       -2.17345204      -2.75521354      -0.17493993
H       -3.51492346      -1.86775010      -0.88966230
H       -3.44021230       0.37203867      -1.40868590
C       -7.61517830      -1.76748017      -2.38071352
N       -6.77400147      -0.59380664      -2.39113187
C       -7.24012136       0.57230575      -2.90495429
C       -6.47813999       1.67854156      -2.93098421
C       -5.13568573       1.61086388      -2.39910478
N       -4.31886959       2.61055966      -2.37334246
N       -4.70801307       0.42065896      -1.89532601
C       -5.47603098      -0.67326070      -1.87056580
O       -5.09696641      -1.74915704      -1.41108942
H       -7.87759591      -2.05765944      -3.39970920
H       -8.52702478      -1.57759817      -1.81215916
H       -7.05347842      -2.57173208      -1.90871013
H       -8.25230874       0.54879261      -3.28480011
H       -6.84271254       2.60792243      -3.33529413
H       -4.67904304       3.47320202      -2.75593644
H       -3.02772334       2.56946347      -1.81465997
35
Properties=species:S:1:pos:R:3 pbc="F F F"
C        2.24555967      -0.69774122       1.13512984
N        1.41755592       0.31385321       0.54542817
C        1.70667969       1.64040271       0.34572987
N        0.74887923       2.31256131      -0.20480802
C       -0.26079021       1.40048355      -0.39538994
C        0.15441920       0.14349797       0.07436479
N       -0.56900906      -0.97228359       0.04318225
C       -1.77561346      -0.81743415      -0.48788958
N       -2.53569490      -1.90974132      -0.57687969
N       -2.28431986       0.35566308      -0.96376309
C       -1.55719562       1.49267091      -0.94143082
O       -2.01839878       2.60347114      -1.39186378
H        2.30375587      -1.55897257       0.46809648
H        3.24223012      -0.29320963       1.30284861
H        1.82030537      -1.02692958       2.08568426
H        2.65272655       2.05963892       0.62777259
H       -2.16420304      -2.74977895      -0.17244823
H       -3.50900552      -1.87296304      -0.88613320
H       -3.50521843       0.37533492      -1.43223934
C       -7.62011659      -1.76723254      -2.38214934
N       -6.77956988      -0.59243841      -2.39333900
C       -7.24554716       0.57386997      -2.90796539
C       -6.48408713       1.68033198      -2.93431849
C       -5.14120206       1.61566921      -2.40290916
N       -4.32258824       2.61109315      -2.37601818
N       -4.71646297       0.42257049      -1.89794256
C       -5.48428359      -0.67549648      -1.87050162
O       -5.10687605      -1.74832106      -1.40905419
H       -7.88272792      -2.05746776      -3.40104641
H       -8.53155105      -1.57775430      -1.81283216
H       -7.05676637      -2.57074010      -1.91021192
H       -8.25744009       0.55047859      -3.28829391
H       -6.84809628       2.60955396      -3.33916134
H       -4.67802746       3.47604032      -2.75789214
H       -3.02852564       2.56548802      -1.81366079
35
Properties=species:S:1:pos:R:3 pbc="F F F"
C        2.24950753      -0.69162769       1.13554705
N        1.42076271       0.32126313       0.54863187
C        1.70593248       1.64917750       0.35156216
N        0.74624881       2.31968932      -0.19794471
C       -0.26061037       1.40498322      -0.39113917
C        0.15785510       0.14869254       0.07548266
N       -0.56234237      -0.96887744       0.03841642
C       -1.76671695      -0.81222086      -0.49891740
N       -2.51582753      -1.91465862      -0.60659389
N       -2.28312078       0.35598952      -0.96918995
C       -1.55756205       1.49127604      -0.93727543
O       -2.02274518       2.60625358      -1.38165790
H        2.29448367      -1.55664271       0.47230083
H        3.25102674      -0.29369501       1.29088061
H        1.83281760      -1.01396092       2.09249144
H        2.65109065       2.07138245       0.63345341
H       -2.14810614      -2.74596471      -0.18124837
H       -3.49410168      -1.87735576      -0.88718406
H       -3.57197153       0.36863010      -1.45505410
C       -7.63997221      -1.76184009      -2.38621940
N       -6.79024667      -0.59304875      -2.39184893
C       -7.24832260       0.57428395      -2.91234226
C       -6.48391788       1.67848449      -2.93907661
C       -5.14200945       1.61400164      -2.40591667
N       -4.31851562       2.60287837      -2.38039051
N       -4.72782196       0.41709088      -1.89550794
C       -5.50112974      -0.68268965      -1.85837908
O       -5.13024462      -1.74807092      -1.38264867
H       -7.90478195      -2.04297385      -3.40678083
H       -8.55042501      -1.56719630      -1.81751736
H       -7.08609571      -2.57379826      -1.91839306
H       -8.25842090       0.55472853      -3.29728944
H       -6.84385418       2.60769662      -3.34689402
H       -4.66639752       3.46971396      -2.76526218
H       -3.03007891       2.56049939      -1.80920520
35
Properties=species:S:1:pos:R:3 pbc="F F F"
C        2.24410861      -0.69764156       1.10664798
N        1.36956054       0.33491987       0.63019491
C        1.57592406       1.69173829       0.62883729
N        0.59621851       2.37360422       0.13002974
C       -0.34111179       1.43697689      -0.23209701
C        0.13968697       0.15463139       0.08129400
N       -0.50211303      -0.99106914      -0.13501129
C       -1.69621701      -0.83267085      -0.69253216
N       -2.37424959      -1.95397468      -0.99792183
N       -2.26320107       0.35167156      -1.03222495
C       -1.61295639       1.51141608      -0.83476037
O       -2.13409871       2.64023394      -1.18412786
H        1.78663997      -1.65512166       0.86347173
H        3.22022808      -0.62402959       0.62362715
H        2.37676120      -0.62336951       2.18834641
H        2.47927457       2.12477265       1.01210949
H       -1.99029633      -2.80169009      -0.61716175
H       -3.38168569      -1.91093603      -1.13434997
H       -3.59672012       0.36105836      -1.53508353
C       -7.69262880      -1.70058840      -2.18153181
N       -6.80189104      -0.57031201      -2.31185957
C       -7.22888606       0.56455305      -2.92470984
C       -6.43226217       1.63792130      -3.06119793
C       -5.08856166       1.58317362      -2.53253292
N       -4.23228201       2.54196153      -2.57023539
N       -4.70613264       0.40958154      -1.94655037
C       -5.50090946      -0.66969921      -1.81568306
O       -5.13107150      -1.70975563      -1.29066968
H       -7.98208959      -2.07340859      -3.16545015
H       -8.58643279      -1.41640588      -1.62427831
H       -7.16054095      -2.48187145      -1.64141294
H       -8.24577712       0.54449860      -3.29086759
H       -6.77329036       2.53703553      -3.54504311
H       -4.55134631       3.39280590      -3.01238314
H       -3.04393339       2.55739861      -1.77498030
35
Properties=species:S:1:pos:R:3 pbc="F F F"
C        2.24668970      -0.69861082       1.10819797
N        1.37408801       0.33520920       0.63208633
C        1.58119080       1.69176594       0.63220378
N        0.60199435       2.37468306       0.13394593
C       -0.33584129       1.43882566      -0.22883269
C        0.14404964       0.15560949       0.08301457
N       -0.49827062      -0.98888372      -0.13521894
C       -1.69179636      -0.82720312      -0.69460818
N       -2.37090667      -1.94921797      -0.99975779
N       -2.25787597       0.35586596      -1.03532280
C       -1.60525261       1.51096023      -0.83439036
O       -2.12557227       2.64432514      -1.18500894
H        1.78647555      -1.65487926       0.86544388
H        3.22252316      -0.62720066       0.62428808
H        2.37971293      -0.62382917       2.18991054
H        2.48506281       2.12431457       1.01506768
H       -1.98834948      -2.79567558      -0.61478900
H       -3.37793359      -1.90589868      -1.13259648
H       -3.63721360       0.36683637      -1.55253427
C       -7.69567209      -1.70228064      -2.18305572
N       -6.80739153      -0.57001453      -2.31489866
C       -7.23587416       0.56478763      -2.92841559
C       -6.44201829       1.63984209      -3.06702743
C       -5.09746597       1.59077565      -2.53881822
N       -4.24056393       2.54652876      -2.57080408
N       -4.71621207       0.41467785      -1.95136150
C       -5.50910494      -0.66757701      -1.81585025
O       -5.13742474      -1.70288241      -1.28500705
H       -7.98567812      -2.07621704      -3.16635597
H       -8.58899789      -1.42013901      -1.62405602
H       -7.15935359      -2.48117954      -1.64355937
H       -8.25325346       0.54389456      -3.29277068
H       -6.78586163       2.53773876      -3.55146098
H       -4.55571745       3.39795136      -3.01517160
H       -3.02479167       2.55872174      -1.76081944
35
Properties=species:S:1:pos:R:3 pbc="F F F"
C        2.25168289      -0.70075308       1.11111895
N        1.38091558       0.33506686       0.63547225
C        1.58943819       1.69136291       0.63696977
N        0.61174519       2.37622052       0.13830392
C       -0.32710379       1.44205155      -0.22658496
C        0.15107479       0.15757045       0.08471000
N       -0.49220428      -0.98559942      -0.13429109
C       -1.68526129      -0.82096739      -0.69496752
N       -2.36586332      -1.94285842      -1.00056682
N       -2.24985486       0.36138817      -1.03651560
C       -1.59534020       1.51245201      -0.83309305
O       -2.11650952       2.64940752      -1.18510236
H        1.78881599      -1.65589467       0.86878329
H        3.22745911      -0.63222393       0.62645603
H        2.38595485      -0.62642977       2.19277772
H        2.49347329       2.12243469       1.02127295
H       -1.98612080      -2.78940192      -0.61296095
H       -3.37228811      -1.89774827      -1.13134378
H       -3.67464277       0.37222344      -1.56753387
C       -7.70101068      -1.70351926      -2.18482013
N       -6.81522374      -0.56921850      -2.31706743
C       -7.24520846       0.56506453      -2.93254910
C       -6.45437823       1.64166647      -3.07245962
C       -5.10871986       1.59879795      -2.54551973
N       -4.25093444       2.55151298      -2.57550366
N       -4.72850225       0.42040462      -1.95648126
C       -5.51871415      -0.66507046      -1.81703349
O       -5.14296273      -1.69658695      -1.28316852
H       -7.99122336      -2.07771620      -3.16792220
H       -8.59439161      -1.42415965      -1.62455679
H       -7.16280498      -2.48195188      -1.64627454
H       -8.26242961       0.54057893      -3.29714056
H       -6.80122949       2.53757206      -3.55806585
H       -4.56555075       3.40293699      -3.02097288
H       -3.00313852       2.56099301      -1.74741968
35
Properties=species:S:1:pos:R:3 pbc="F F F"
C        2.25852682      -0.70350939       1.11503675
N        1.38999760       0.33460022       0.63981558
C        1.60055501       1.69045373       0.64308505
N        0.62485148       2.37779414       0.14385581
C       -0.31544566       1.44589691      -0.22366089
C        0.16043743       0.15994439       0.08708316
N       -0.48402130      -0.98183963      -0.13275902
C       -1.67676257      -0.81412761      -0.69427576
N       -2.36010123      -1.93506561      -1.00000429
N       -2.23919281       0.36813422      -1.03674685
C       -1.58248251       1.51533417      -0.83136598
O       -2.10386845       2.65592182      -1.18491237
H        1.79279326      -1.65746043       0.87328919
H        3.23423380      -0.63816021       0.62952371
H        2.39412713      -0.62954980       2.19664630
H        2.50479719       2.11950763       1.02932009
H       -1.98385326      -2.78251622      -0.61085036
H       -3.36590937      -1.88715073      -1.13052705
H       -3.71022004       0.37898760      -1.58183291
C       -7.70848238      -1.70503251      -2.18720602
N       -6.82508958      -0.56896578      -2.32005970
C       -7.25730689       0.56446560      -2.93723828
C       -6.46979279       1.64303374      -3.07905054
C       -5.12283911       1.60648686      -2.55310639
N       -4.26451005       2.55671600      -2.58153199
N       -4.74292188       0.42655068      -1.96236737
C       -5.52985256      -0.66237484      -1.82013618
O       -5.14883725      -1.69035723      -1.28461700
H       -7.99922506      -2.07953186      -3.16982499
H       -8.60173578      -1.42828928      -1.62577634
H       -7.16882508      -2.48300213      -1.64974612
H       -8.27447064       0.53641424      -3.30160704
H       -6.82004934       2.53704646      -3.56598425
H       -4.57860441       3.40805222      -3.02835866
H       -2.97969345       2.56402289      -1.73383282
35
Properties=species:S:1:pos:R:3 pbc="F F F"
C        2.26663979      -0.70677640       1.11963675
N        1.40084140       0.33386537       0.64493119
C        1.61402148       1.68922504       0.64998924
N        0.64051397       2.37928536       0.15018932
C       -0.30125320       1.44985622      -0.21985459
C        0.17156732       0.16212031       0.09036593
N       -0.47480833      -0.97805550      -0.13028656
C       -1.66710947      -0.80669693      -0.69262691
N       -2.35442997      -1.92578719      -0.99817758
N       -2.22593291       0.37604607      -1.03588680
C       -1.56686103       1.51937332      -0.82876219
O       -2.08888924       2.66286647      -1.18433420
H        1.79771288      -1.65929474       0.87829971
H        3.24218044      -0.64461458       0.63329632
H        2.40333618      -0.63313279       2.20113597
H        2.51855136       2.11599197       1.03816459
H       -1.98196171      -2.77459260      -0.60841358
H       -3.35945158      -1.87464242      -1.13005716
H       -3.74404684       0.38677902      -1.59639208
C       -7.71728386      -1.70703188      -2.18991288
N       -6.83645445      -0.56906732      -2.32386660
C       -7.27141333       0.56356368      -2.94228470
C       -6.48767690       1.64434253      -3.08626377
C       -5.13955985       1.61433903      -2.56183282
N       -4.28114980       2.56266989      -2.58933964
N       -4.75927121       0.43308540      -1.96970999
C       -5.54189505      -0.65987277      -1.82500257
O       -5.15473067      -1.68469711      -1.28895230
H       -8.00861757      -2.08208057      -3.17211752
H       -8.61034910      -1.43239393      -1.62717590
H       -7.17525726      -2.48395051      -1.65330685
H       -8.28859133       0.53213827      -3.30615003
H       -6.84152352       2.53622250      -3.57447563
H       -4.59504532       3.41362608      -3.03769964
H       -2.95559653       2.56688430      -1.72004511
35
Properties=species:S:1:pos:R:3 pbc="F F F"
C        2.32552160      -0.73115719       1.18361335
N        1.50706570       0.28593028       0.59123192
C        1.80471828       1.61051830       0.39676829
N        0.85576100       2.29134224      -0.15875651
C       -0.15859126       1.38620487      -0.36003387
C        0.24486655       0.12343418       0.10886527
N       -0.48339563      -0.98639633       0.06764862
C       -1.68418763      -0.81046489      -0.47960637
N       -2.44356171      -1.91227200      -0.59796072
N       -2.19038557       0.35328189      -0.95034551
C       -1.45048707       1.46424686      -0.90833934
O       -1.91938093       2.59717549      -1.36540753
H        2.39169337      -1.58795875       0.51149793
H        3.32083818      -0.32997096       1.36763713
H        1.88794599      -1.06762715       2.12609106
H        2.75204886       2.02298975       0.68634396
H       -2.09365571      -2.74404904      -0.15859425
H       -3.41841594      -1.86585964      -0.86843564
H       -3.78084907       0.35806595      -1.53558710
C       -7.67522403      -1.77970161      -2.39478533
N       -6.82201794      -0.61259731      -2.39732231
C       -7.28031593       0.56071303      -2.91605409
C       -6.52429027       1.66907184      -2.94973287
C       -5.17564073       1.62340109      -2.42631961
N       -4.33278200       2.58303093      -2.39120379
N       -4.77779649       0.40745990      -1.91631662
C       -5.53987120      -0.71151789      -1.87001649
O       -5.14523770      -1.76241306      -1.39519726
H       -7.93665874      -2.06069670      -3.41607289
H       -8.58703980      -1.58272004      -1.82955467
H       -7.12649432      -2.59390226      -1.92526950
H       -8.29187429       0.53723529      -3.29609830
H       -6.89608298       2.59301347      -3.35907884
H       -4.66435160       3.45852599      -2.77473984
H       -2.85460489       2.52179717      -1.74844871
